Zn2 Fe46 H50 O96
1.0
  10.0941908285049582   -0.0006307924113035    0.0032932567846332
  -0.0011488821200117   18.3864555457131829    0.0000919625766236
   0.0030119668116640    0.0000459979946768    9.2346614288641593
Zn Fe H O
2 46 50 96
direct
   0.1319769782199367    0.2080901084596552    0.6883305622476056 Zn
   0.1319769411247514    0.7080901228289822    0.6883306997675213 Zn
   0.1435062134984562    0.3748964523362197    0.2209022911552702 Fe
   0.1435061482974212    0.8748964425202618    0.2209021745362068 Fe
   0.3567380106624584    0.4580734303022947    0.9699809624086893 Fe
   0.3567379337826626    0.9580732098375701    0.9699810560335999 Fe
   0.8573858403774965    0.4580726470110885    0.7785382896594673 Fe
   0.8573859294610401    0.9580726802717056    0.7785381961644309 Fe
   0.6450359032267177    0.3751561952859461    0.0299458076205604 Fe
   0.6450357893469979    0.8751560970391953    0.0299456748677688 Fe
   0.1435033451935174    0.0412666911417355    0.2209186458276538 Fe
   0.1435032615424756    0.5412666999514015    0.2209187574533168 Fe
   0.3630340076255055    0.1203833269026215    0.9813838123861328 Fe
   0.3630341692131999    0.6203832573112683    0.9813838319967565 Fe
   0.8574271681304755    0.1245635295773727    0.7799861268986770 Fe
   0.8574272195073439    0.6245634824032400    0.7799861506377336 Fe
   0.6450549054134371    0.0409830371665957    0.0299601657055017 Fe
   0.6450547160339968    0.5409830360135904    0.0299601661540587 Fe
   0.1440019784691531    0.2080821683741179    0.2249230415492138 Fe
   0.1440019510728527    0.7080821445099512    0.2249229318498316 Fe
   0.3629335607663089    0.2957640647042524    0.9813609397410574 Fe
   0.3629336516738843    0.7957641360860443    0.9813607629089267 Fe
   0.8574280327620054    0.2915815480248802    0.7799867146625368 Fe
   0.8574281228318151    0.7915815636202700    0.7799868152453342 Fe
   0.6448305360849386    0.2080739776129248    0.0299461030942435 Fe
   0.6448306026032137    0.7080739801186077    0.0299459697554621 Fe
   0.1424261061451745    0.3740943983888479    0.7213246996243794 Fe
   0.1424261447183411    0.8740943933224433    0.7213247718318165 Fe
   0.3564537823835346    0.4580741358795065    0.4726847885000131 Fe
   0.3564537653638031    0.9580740775268913    0.4726848266230177 Fe
   0.8574769554419959    0.4580750444698221    0.2796547222372039 Fe
   0.8574769372145853    0.9580749717788335    0.2796547100307489 Fe
   0.6433813728243215    0.3747971459336353    0.5300782137458995 Fe
   0.6433816378862230    0.8747972162486272    0.5300784387949059 Fe
   0.1424322129059008    0.0420570318706313    0.7213244612346157 Fe
   0.1424321488121891    0.5420569480757434    0.7213243879812833 Fe
   0.3571569182303831    0.1236316180130904    0.4696235489571133 Fe
   0.3571567056580854    0.6236315936743628    0.4696237483831862 Fe
   0.8576577386324327    0.1245366334315239    0.2785864485620503 Fe
   0.8576577469836768    0.6245365542294102    0.2785863054765171 Fe
   0.6433812302783641    0.0413493023913283    0.5300759488692403 Fe
   0.6433810811041372    0.5413492395998306    0.5300760926069283 Fe
   0.3571631382281628    0.2925244513277194    0.4696157278008435 Fe
   0.3571630026753533    0.7925244835809107    0.4696156528336735 Fe
   0.8576554880338667    0.2916183498565970    0.2785761055463658 Fe
   0.8576555637491600    0.7916183469968510    0.2785760487383873 Fe
   0.6440917710682390    0.2080747775844668    0.5297177266509332 Fe
   0.6440917475179440    0.7080748154085569    0.5297175560174321 Fe
   0.9057730203440367    0.3753222223824997    0.0496058679889787 H
   0.9057729678517298    0.8753222907671183    0.0496059957225666 H
   0.5947617156071704    0.4580719905928429    0.8010209404311043 H
   0.5947618067506691    0.9580719416031592    0.8010208384695686 H
   0.0942159202012877    0.4580788258127958    0.9497025402273478 H
   0.0942160746142291    0.9580790063341906    0.9497025811037298 H
   0.4052858620313298    0.3768485100665893    0.2049444800650319 H
   0.4052859391314322    0.8768485261589496    0.2049443006933528 H
   0.9057757413263184    0.0408305578962741    0.0496187699459012 H
   0.9057755439417957    0.5408305815025668    0.0496188148148038 H
   0.5947235422835272    0.1242929549105464    0.8003147145276689 H
   0.5947235562113612    0.6242929729484308    0.8003145435118032 H
   0.0862396517599768    0.1194919554230980    0.9498078132212185 H
   0.0862398387915812    0.6194919503720584    0.9498079133342022 H
   0.4052981245362974    0.0392910893126293    0.2049583441645479 H
   0.4052978997286378    0.5392911219968785    0.2049581647529562 H
   0.9064623377613766    0.2080755953747330    0.0506239773007365 H
   0.9064623249763326    0.7080755938401044    0.0506240871306462 H
   0.5946710054683557    0.2918512075782377    0.8003147002241682 H
   0.5946711522843209    0.7918513686670066    0.8003147493993628 H
   0.0863009973723797    0.2965944345850011    0.9497505723714199 H
   0.0863010940929666    0.7965944024793526    0.9497504550303784 H
   0.4082332977945614    0.2080667469521524    0.2031822883985357 H
   0.4082335411187916    0.7080667035114299    0.2031823788005455 H
   0.9047072668211215    0.3750798647014402    0.5495294609404519 H
   0.9047072667600917    0.8750797816843400    0.5495293236030838 H
   0.5946723658935719    0.4580788500749899    0.3013822701668295 H
   0.5946724053815514    0.9580788967628971    0.3013823417907388 H
   0.0949996923830071    0.4580758006692720    0.4503863822598198 H
   0.0949996125317912    0.9580757779101740    0.4503863320868046 H
   0.4059989237460918    0.3743092684588045    0.7003045937747500 H
   0.4059990216342104    0.8743091828835255    0.7003045709951841 H
   0.9047290608230828    0.0410733000483298    0.5495309130615128 H
   0.9047290050310598    0.5410733826789770    0.5495309462478563 H
   0.5953740903250807    0.1244884154397005    0.3008314555557796 H
   0.5953740675538842    0.6244884576696826    0.3008314342707401 H
   0.0973959719984057    0.1209840019042831    0.4491260224229741 H
   0.0973957940367491    0.6209838693234390    0.4491259364164761 H
   0.4060041547466200    0.0418365442189511    0.7003119322181957 H
   0.4060041271573370    0.5418366993742506    0.7003118488813650 H
   0.8979354262968541    0.2080725898356932    0.5475263147283146 H
   0.8979355737060699    0.7080727015598275    0.5475263142348594 H
   0.5953755201145694    0.2916565973315652    0.3008292313476859 H
   0.5953757308751646    0.7916566187602201    0.3008291141754031 H
   0.0973735056038404    0.2951835096145852    0.4491057804476524 H
   0.0973736649317718    0.7951833928201042    0.4491057919026147 H
   0.4176685894371304    0.2080563099692930    0.6992518657170171 H
   0.4176691650372636    0.7080563845165216    0.6992507755676109 H
   0.2050793385838529    0.2077490192740481    0.9168186733051676 H
   0.2050791129321473    0.7077490842753742    0.9168191098550917 H
   0.8065137394936793    0.3753012208625507    0.9081788725034322 O
   0.8065138536329077    0.8753011196671913    0.9081789728170951 O
   0.6936196126437550    0.4580705822224264    0.1585327203967396 O
   0.6936197848677305    0.9580706047325985    0.1585323113893125 O
   0.1928718051607871    0.4580812126900823    0.0916800269105127 O
   0.1928718397779617    0.9580811939987236    0.0916803722623426 O
   0.3094975047922041    0.3737523480919459    0.8448317651908458 O
   0.3094974792840705    0.8737522458726740    0.8448317787195159 O
   0.9425015288078420    0.3749727150648537    0.1518453687154957 O
   0.9425016385621507    0.8749727918117139    0.1518455022517178 O
   0.5579954625638314    0.4580722391145468    0.9034200688841336 O
   0.5579954320267062    0.9580722558549730    0.9034203972980308 O
   0.0584337811850507    0.4580758111008313    0.8473043380378528 O
   0.0584338528213533    0.9580757759182988    0.8473044736583594 O
   0.4441627493064177    0.3762761677408174    0.1019991723137750 O
   0.4441628742541212    0.8762761698269903    0.1019990503090154 O
   0.8065147394611457    0.0408405151649398    0.9081845118836637 O
   0.8065148608763834    0.5408404433684020    0.9081846162289292 O
   0.6930388805201505    0.1244930360285237    0.1578046845844785 O
   0.6930388733267446    0.6244930054829856    0.1578045993813161 O
   0.1941541204913880    0.1248014829025395    0.0942376689688672 O
   0.1941543488124127    0.6248014330461386    0.0942379769616987 O
   0.3095034353730545    0.0424058575222820    0.8448538735320376 O
   0.3095035517157925    0.5424058214875926    0.8448540794596500 O
   0.9425035830731510    0.0411849772719213    0.1518567683190994 O
   0.9425036502155955    0.5411849480695079    0.1518567002341904 O
   0.5560823544744492    0.1253997858805038    0.9024547385583499 O
   0.5560825517924571    0.6253997089677169    0.9024546678801519 O
   0.0533118998460461    0.1208139202097150    0.8476906416988242 O
   0.0533120433153021    0.6208139634744485    0.8476905518037653 O
   0.4441772267478290    0.0398696591495592    0.1020152873614279 O
   0.4441772393513900    0.5398696802035520    0.1020153163073754 O
   0.8076044117183779    0.2080709478744927    0.9092396305884090 O
   0.8076045783040074    0.7080709015480662    0.9092396117593046 O
   0.6930375540126035    0.2916528897482814    0.1578022530415804 O
   0.6930375537085632    0.7916529307119662    0.1578021574007887 O
   0.1941955119152146    0.2913765984880005    0.0942680409857885 O
   0.1941955087368771    0.7913766057678392    0.0942679640161092 O
   0.2890853290041278    0.2080526244924527    0.8619973634772007 O
   0.2890852719925864    0.7080525837339815    0.8619974912922796 O
   0.9429389119123548    0.2080805079619426    0.1530300684786126 O
   0.9429390365071377    0.7080804381523541    0.1530300068680001 O
   0.5560795702699441    0.2907380689092628    0.9024671967303582 O
   0.5560795748702942    0.7907381170126294    0.9024670179509049 O
   0.0533235824393924    0.2953327867583483    0.8476458125438878 O
   0.0533235387265727    0.7953327604072117    0.8476456847817337 O
   0.4447493926531423    0.2080602953061793    0.1005124003458689 O
   0.4447495216830526    0.7080601259299407    0.1005124040985208 O
   0.8077616279736510    0.3746349600862262    0.4074804515867235 O
   0.8077616491178641    0.8746349681572999    0.4074804270049945 O
   0.6921481818291698    0.4580741267731819    0.6585302140664542 O
   0.6921480772137906    0.9580741361458005    0.6585302890606183 O
   0.1932185962950445    0.4580788211095088    0.5933972251349284 O
   0.1932184472020754    0.9580788074445352    0.5933970179180073 O
   0.3100990884467065    0.3757675070397099    0.3395889051778158 O
   0.3100989447607187    0.8757676739602707    0.3395888054982206 O
   0.9407770077840046    0.3749093364040265    0.6518969828998999 O
   0.9407769885624491    0.8749092178041102    0.6518970087200453 O
   0.5587479344031715    0.4580768609608172    0.4038013272300062 O
   0.5587480514613533    0.9580769284907507    0.4038011855541198 O
   0.0589579302841315    0.4580778436546421    0.3477904343476289 O
   0.0589578564982181    0.9580777853963777    0.3477904257804411 O
   0.4426106075451632    0.3749108865927201    0.5981576032895981 O
   0.4426105416533553    0.8749106641863201    0.5981574633337350 O
   0.8077641127553299    0.0415148790430347    0.4074845509623536 O
   0.8077641568820373    0.5415148884796255    0.4074845288404439 O
   0.6902279059009563    0.1245522415980443    0.6595242627621710 O
   0.6902277046402636    0.6245522592931761    0.6595242859311435 O
   0.1935122852093482    0.1200588016351323    0.5843047969806482 O
   0.1935122363205334    0.6200587635571602    0.5843051710662022 O
   0.3100913683971978    0.0403899355775291    0.3395912836615905 O
   0.3100913877434139    0.5403898662957120    0.3395911046070364 O
   0.9407841232355993    0.0412461559997100    0.6519030367320181 O
   0.9407841329798301    0.5412462366051081    0.6519031465997721 O
   0.5589046199096867    0.1246843317987203    0.4031271149739022 O
   0.5589046219866305    0.6246843439142069    0.4031271637665990 O
   0.0581362002189441    0.1240526523826112    0.3469627013599474 O
   0.0581364221733880    0.6240526759835895    0.3469626778178330 O
   0.4426025731314062    0.0412383635359209    0.5981600859719118 O
   0.4426027323206835    0.5412384408587434    0.5981601436875492 O
   0.8068061315183813    0.2080751031704871    0.4063775030995014 O
   0.8068060610245977    0.7080752049831996    0.4063773562782038 O
   0.6902348707983119    0.2915955176476929    0.6595090608028532 O
   0.6902349396281728    0.7915956183524124    0.6595090362880973 O
   0.1935208023941063    0.2961089599104628    0.5842856772260863 O
   0.1935204799645941    0.7961090455915516    0.5842856538427325 O
   0.3090416113325528    0.2080755831272496    0.3423770690310125 O
   0.3090415660524046    0.7080755793263981    0.3423770570609840 O
   0.9328216068468744    0.2080745427831256    0.6507994517124942 O
   0.9328215205149285    0.7080745153027423    0.6507995751233182 O
   0.5589035955315593    0.2914610802541805    0.4031238385883848 O
   0.5589037254402507    0.7914611102677696    0.4031237687646340 O
   0.0581297056310920    0.2921035516705917    0.3469436751849410 O
   0.0581296922590530    0.7921034271104848    0.3469435664140594 O
   0.4415023724384775    0.2080748724507927    0.5967630933759174 O
   0.4415025866899098    0.7080746595969379    0.5967633488540647 O
